p tw 173 357
1 67
1 110
1 111
1 152
2 78
2 79
2 113
2 114
2 155
2 156
3 49
3 50
3 123
3 124
3 135
3 136
3 165
3 166
4 66
4 103
4 144
4 145
5 107
5 108
5 147
5 148
5 167
6 50
6 51
6 95
6 96
6 136
6 137
7 52
7 53
7 121
7 122
7 163
7 164
7 169
7 170
8 100
8 101
8 140
8 141
9 48
9 49
9 94
9 95
9 134
9 135
10 79
10 80
10 112
10 113
10 154
10 155
11 82
11 83
11 98
11 99
11 139
12 14
12 76
12 77
12 124
12 166
13 84
13 85
13 143
13 144
13 171
13 172
14 85
14 124
14 166
15 87
15 120
15 121
15 133
15 134
15 162
15 163
16 64
16 101
16 102
16 142
16 143
17 74
17 75
17 119
17 120
17 160
17 161
18 63
18 96
18 97
18 138
19 21
19 55
19 56
19 106
19 107
19 114
19 115
19 148
19 149
19 156
19 157
20 25
20 67
20 68
20 111
20 153
21 105
21 106
21 149
21 150
22 81
22 82
22 116
22 117
22 158
22 159
23 71
23 72
23 90
23 91
23 115
23 116
23 128
23 129
23 157
23 158
24 72
24 73
24 92
24 93
24 130
24 131
24 171
25 68
25 69
25 111
25 153
26 62
26 63
26 132
26 133
27 46
27 88
27 125
28 53
28 54
28 104
29 57
29 58
29 109
29 151
30 61
30 62
30 93
30 94
30 131
30 132
31 47
31 48
31 89
31 90
31 127
31 128
32 64
32 65
32 118
32 119
32 141
32 142
32 161
32 162
33 46
33 47
33 88
33 89
33 126
33 127
34 52
34 99
34 100
34 139
34 140
35 108
35 109
35 150
35 151
36 77
36 78
36 98
36 112
36 154
37 54
37 55
37 146
38 110
38 152
38 153
39 51
39 97
39 137
39 138
40 69
40 70
40 125
40 126
41 59
41 60
41 91
41 92
41 129
41 130
42 86
42 87
42 117
42 118
42 159
42 160
42 168
42 169
43 104
43 105
43 146
43 147
44 65
44 66
44 102
44 103
44 122
44 123
44 145
44 164
44 165
44 172
44 173
45 86
45 167
45 168
46 47
47 48
48 49
49 50
50 51
52 53
53 54
54 55
55 56
56 57
57 58
58 59
59 60
60 61
61 62
62 63
64 65
65 66
67 68
68 69
69 70
70 71
71 72
72 73
73 74
74 75
75 76
76 77
77 78
78 79
79 80
80 81
81 82
82 83
83 84
84 85
86 87
88 89
89 90
90 91
91 92
92 93
93 94
94 95
95 96
96 97
98 99
99 100
100 101
101 102
102 103
104 105
105 106
106 107
107 108
108 109
110 111
112 113
113 114
114 115
115 116
116 117
117 118
118 119
119 120
120 121
121 122
122 123
123 124
125 126
126 127
127 128
128 129
129 130
130 131
131 132
132 133
133 134
134 135
135 136
136 137
137 138
139 140
140 141
141 142
142 143
143 144
144 145
146 147
147 148
148 149
149 150
150 151
152 153
154 155
155 156
156 157
157 158
158 159
159 160
160 161
161 162
162 163
163 164
164 165
165 166
167 168
168 169
169 170
170 173
171 172
172 173
